177
Route #1: 1 76 
Route #2: 2 72 94 
Route #3: 3 30 46 
Route #4: 4 77 
Route #5: 5 58 137 
Route #6: 6 91 
Route #7: 7 56 
Route #8: 8 68 109 
Route #9: 9 51 114 
Route #10: 10 54 
Route #11: 11 112 
Route #12: 12 28 100 
Route #13: 13 41 
Route #14: 14 45 
Route #15: 15 103 
Route #16: 16 37 122 
Route #17: 17 95 
Route #18: 18 57 
Route #19: 19 55 99 
Route #20: 20 52 
Route #21: 21 90 
Route #22: 22 43 121 
Route #23: 23 67 79 132 
Route #24: 24 47 87 
Route #25: 25 33 80 123 
Route #26: 26 73 117 
Route #27: 27 69 116 
Route #28: 29 48 110 
Route #29: 31 81 130 
Route #30: 32 78 
Route #31: 34 104 153 
Route #32: 35 62 92 
Route #33: 36 70 96 
Route #34: 38 125 
Route #35: 39 84 105 162 
Route #36: 40 
Route #37: 42 60 
Route #38: 44 127 167 
Route #39: 49 136 
Route #40: 50 93 143 
Route #41: 53 89 
Route #42: 59 102 173 
Route #43: 61 144 
Route #44: 63 120 
Route #45: 64 124 
Route #46: 65 101 133 174 
Route #47: 66 126 187 
Route #48: 71 88 118 
Route #49: 74 135 180 
Route #50: 75 108 148 
Route #51: 82 107 
Route #52: 83 
Route #53: 85 
Route #54: 86 119 155 166 
Route #55: 97 169 
Route #56: 98 156 175 216 
Route #57: 106 140 170 
Route #58: 111 165 228 
Route #59: 113 139 233 
Route #60: 115 186 
Route #61: 128 202 
Route #62: 129 161 227 261 
Route #63: 131 154 224 
Route #64: 134 193 
Route #65: 138 190 282 
Route #66: 141 178 236 260 
Route #67: 142 222 
Route #68: 145 196 226 276 
Route #69: 146 199 
Route #70: 147 192 246 
Route #71: 149 200 
Route #72: 150 206 
Route #73: 151 160 239 
Route #74: 152 181 271 
Route #75: 157 172 244 
Route #76: 158 235 
Route #77: 159 262 
Route #78: 163 242 280 
Route #79: 164 211 257 299 
Route #80: 168 232 249 274 
Route #81: 171 205 295 
Route #82: 176 240 
Route #83: 177 204 245 
Route #84: 179 248 
Route #85: 182 268 
Route #86: 183 264 
Route #87: 184 213 292 
Route #88: 185 256 
Route #89: 188 225 
Route #90: 189 208 265 326 
Route #91: 191 290 
Route #92: 194 258 329 
Route #93: 195 255 
Route #94: 197 215 241 287 
Route #95: 198 250 281 309 
Route #96: 201 266 300 
Route #97: 203 277 320 
Route #98: 207 272 
Route #99: 209 243 288 301 339 
Route #100: 210 284 296 317 
Route #101: 212 297 
Route #102: 214 267 346 
Route #103: 217 293 333 
Route #104: 218 275 
Route #105: 219 294 
Route #106: 220 263 306 344 
Route #107: 221 279 325 
Route #108: 223 
Route #109: 229 273 304 
Route #110: 230 
Route #111: 231 311 332 
Route #112: 234 302 
Route #113: 237 254 
Route #114: 238 283 334 
Route #115: 247 318 
Route #116: 251 330 
Route #117: 252 316 
Route #118: 253 308 366 
Route #119: 259 343 391 
Route #120: 269 324 360 
Route #121: 270 351 
Route #122: 278 352 
Route #123: 285 341 375 
Route #124: 286 
Route #125: 289 368 398 
Route #126: 291 373 
Route #127: 298 349 369 404 
Route #128: 303 342 386 440 
Route #129: 305 331 357 370 422 
Route #130: 307 392 
Route #131: 310 406 
Route #132: 312 384 417 
Route #133: 313 382 418 
Route #134: 314 367 429 
Route #135: 315 372 421 
Route #136: 319 356 439 
Route #137: 321 413 
Route #138: 322 401 
Route #139: 323 362 381 446 
Route #140: 327 394 424 
Route #141: 328 399 426 
Route #142: 335 364 431 
Route #143: 336 379 420 
Route #144: 337 409 
Route #145: 338 414 
Route #146: 340 410 
Route #147: 345 407 448 
Route #148: 347 428 
Route #149: 348 397 
Route #150: 350 416 
Route #151: 353 411 
Route #152: 354 436 
Route #153: 355 441 
Route #154: 358 434 
Route #155: 359 425 
Route #156: 361 383 412 
Route #157: 363 380 433 
Route #158: 365 437 
Route #159: 371 388 
Route #160: 374 449 
Route #161: 376 419 443 
Route #162: 377 400 415 
Route #163: 378 445 
Route #164: 385 
Route #165: 387 408 427 
Route #166: 389 444 
Route #167: 390 
Route #168: 393 432 
Route #169: 395 450 
Route #170: 396 
Route #171: 402 447 
Route #172: 403 430 
Route #173: 405 
Route #174: 423 
Route #175: 435 
Route #176: 438 
Route #177: 442 
Cost 311431.0
